p cnf 17 21
-1 4 16 0 
-1 4 17 0 
-2 -3 5 -4 1 16 0 
-2 -3 5 -4 1 17 0 
-2 -4 1 16 0 
-2 -4 1 17 0 
-5 3 -4 1 16 0 
-5 3 -4 1 17 0 
-5 3 16 0 
-6 -7 12 -8 -5 3 16 0 
-6 -2 -8 -4 1 16 0 
-7 12 -6 -8 -5 3 -9 16 0 
-8 -6 -5 3 17 0 
-8 -6 -5 3 16 0 
-10 -5 3 -11 14 17 0 
-10 -12 7 -5 3 -11 14 16 0 
-5 3 -13 -14 11 17 0 
-5 3 -13 -14 11 16 0 
-9 -6 -7 12 -8 -5 3 16 0 
-6 -7 12 -8 -15 -5 3 17 0 
-5 3 17 0 
